paper_route_planning/thesis1.tsp
NAME: thesis1
TYPE: TSP
COMMENT: Small example
DIMENSION: 8
EDGE_WEIGHT_TYPE: EUC_2D
NODE_COORD_SECTION
1 30.0 30.0
2 30.0 90.0
3 60.0 90.0
4 75.0 69.0
5 75.0 180.0
6 90.0 90.0
7 120.0 90.0
8 120.0 30.0
EOF

