paper_route_planning/thesis1.opt.tour
NAME : thesis1.opt.tour
TYPE : TOUR
DIMENSION : 8
TOUR_SECTION
1
2
3
5
6
7
8
4
-1
EOF
